(set-info :smt-lib-version 2.6)
(set-info :category "crafted")
(set-logic QF_FFA)
(define-sort FF0 () (_ FiniteField 52435875175126190479447740508185965837690552500527637822603658699938581184513))
(declare-fun b () Bool)
(declare-fun d () Bool)
(declare-fun a () Bool)
(declare-fun c () Bool)
(declare-fun return_n2 () FF0)
(declare-fun mul_n24 () FF0)
(declare-fun mul_n14 () FF0)
(declare-fun mul_n23 () FF0)
(declare-fun mul_n15 () FF0)
(declare-fun c_n1 () FF0)
(declare-fun b_n3 () FF0)
(declare-fun mul_n22 () FF0)
(declare-fun mul_n21 () FF0)
(declare-fun mul_n20 () FF0)
(declare-fun mul_n6 () FF0)
(declare-fun mul_n19 () FF0)
(declare-fun mul_n18 () FF0)
(declare-fun a_n4 () FF0)
(declare-fun mul_n17 () FF0)
(declare-fun mul_n8 () FF0)
(declare-fun mul_n16 () FF0)
(declare-fun d_n0 () FF0)
(declare-fun mul_n13 () FF0)
(declare-fun mul_n5 () FF0)
(declare-fun mul_n12 () FF0)
(declare-fun mul_n11 () FF0)
(declare-fun mul_n10 () FF0)
(declare-fun mul_n9 () FF0)
(declare-fun mul_n7 () FF0)
(assert 
  (let ((let0 b))
  (let ((let1 d))
  (let ((let2 a))
  (let ((let3 (= let0 let2)))
  (let ((let4 (not let2)))
  (let ((let5 c))
  (let ((let6 (ite let5 let1 let5)))
  (let ((let7 (and let3 let6 let1)))
  (let ((let8 (or let0 let7 let4 let6 let4 let3 let1)))
  (let ((let9 (= let0 let5)))
  (let ((let10 (and let2 let8 let7 let4 let9 let6 let8 let5 let9 let8 let0)))
  (let ((let11 return_n2))
  (let ((let12 (as ff1 FF0)))
  (let ((let13 (= let12 let11)))
  (let ((let14 (= let13 let10)))
  (let ((let15 (as ff0 FF0)))
  (let ((let16 (= let15 let11)))
  (let ((let17 (or let13 let16)))
  (let ((let18 (and let17 let14)))
  (let ((let19 mul_n24))
  (let ((let20 (as ff52435875175126190479447740508185965837690552500527637822603658699938581184512 FF0)))
  (let ((let21 mul_n14))
  (let ((let22 (ff.mul let21 let20)))
  (let ((let23 (ff.add let22 let12)))
  (let ((let24 mul_n23))
  (let ((let25 (ff.mul let24 let23)))
  (let ((let26 (= let25 let19)))
  (let ((let27 mul_n15))
  (let ((let28 c_n1))
  (let ((let29 (ff.mul let28 let20)))
  (let ((let30 b_n3))
  (let ((let31 (ff.mul let30 let20)))
  (let ((let32 (ff.add let31 let29 let27 let12)))
  (let ((let33 mul_n22))
  (let ((let34 (ff.mul let33 let32)))
  (let ((let35 (= let34 let24)))
  (let ((let36 mul_n21))
  (let ((let37 (ff.mul let36 let28)))
  (let ((let38 (= let37 let33)))
  (let ((let39 mul_n20))
  (let ((let40 (ff.mul let39 let23)))
  (let ((let41 (= let40 let36)))
  (let ((let42 mul_n6))
  (let ((let43 (ff.add let28 let42)))
  (let ((let44 mul_n19))
  (let ((let45 (ff.mul let44 let43)))
  (let ((let46 (= let45 let39)))
  (let ((let47 mul_n18))
  (let ((let48 (ff.mul let47 let32)))
  (let ((let49 (= let48 let44)))
  (let ((let50 a_n4))
  (let ((let51 (ff.mul let50 let20)))
  (let ((let52 (ff.add let51 let12)))
  (let ((let53 mul_n17))
  (let ((let54 (ff.mul let53 let52)))
  (let ((let55 (= let54 let47)))
  (let ((let56 mul_n8))
  (let ((let57 mul_n16))
  (let ((let58 (ff.mul let57 let56)))
  (let ((let59 (= let58 let53)))
  (let ((let60 (ff.mul let50 let23)))
  (let ((let61 (= let60 let57)))
  (let ((let62 (as ff2 FF0)))
  (let ((let63 (ff.mul let30 let62)))
  (let ((let64 (ff.mul let63 let28)))
  (let ((let65 (= let64 let27)))
  (let ((let66 d_n0))
  (let ((let67 (ff.mul let66 let20)))
  (let ((let68 (ff.add let67 let12)))
  (let ((let69 mul_n13))
  (let ((let70 (ff.mul let69 let68)))
  (let ((let71 (= let70 let21)))
  (let ((let72 mul_n5))
  (let ((let73 (ff.mul let72 let20)))
  (let ((let74 (ff.add let50 let73 let30)))
  (let ((let75 mul_n12))
  (let ((let76 (ff.mul let75 let74)))
  (let ((let77 (= let76 let69)))
  (let ((let78 mul_n11))
  (let ((let79 (ff.mul let78 let50)))
  (let ((let80 (= let79 let75)))
  (let ((let81 (ff.mul let42 let20)))
  (let ((let82 (ff.add let29 let81 let12)))
  (let ((let83 mul_n10))
  (let ((let84 (ff.mul let83 let82)))
  (let ((let85 (= let84 let78)))
  (let ((let86 mul_n9))
  (let ((let87 (ff.mul let86 let50)))
  (let ((let88 (= let87 let83)))
  (let ((let89 (ff.mul let56 let20)))
  (let ((let90 (ff.add let89 let12)))
  (let ((let91 (ff.add let31 let12)))
  (let ((let92 (ff.mul let91 let90)))
  (let ((let93 (= let92 let86)))
  (let ((let94 mul_n7))
  (let ((let95 (ff.mul let94 let66)))
  (let ((let96 (= let95 let56)))
  (let ((let97 (ff.add let51 let72 let31 let12)))
  (let ((let98 (ff.mul let97 let43)))
  (let ((let99 (= let98 let94)))
  (let ((let100 (ff.add let66 let29)))
  (let ((let101 (ff.mul let28 let100)))
  (let ((let102 (= let101 let42)))
  (let ((let103 (ff.mul let63 let50)))
  (let ((let104 (= let103 let72)))
  (let ((let105 (and let104 let102 let99 let96 let93 let88 let85 let80 let77 let71 let65 let61 let59 let55 let49 let46 let41 let38 let35 let26)))
  (let ((let106 (ite let1 let12 let15)))
  (let ((let107 (= let66 let106)))
  (let ((let108 (ite let2 let12 let15)))
  (let ((let109 (= let50 let108)))
  (let ((let110 (ite let5 let12 let15)))
  (let ((let111 (= let28 let110)))
  (let ((let112 (ite let0 let12 let15)))
  (let ((let113 (= let30 let112)))
  (let ((let114 (and let113 let111 let109 let107)))
  (let ((let115 (and let114 let105)))
  (let ((let116 (=> let115 let18)))
  (let ((let117 (not let116)))
  let117
))))))))))))))))))))))))))))))))))))))))))))))))))))))))))))))))))))))))))))))))))))))))))))))))))))))))))))))))))))))
)
(check-sat)
